p cnf 79 260
2 -3 -4 0
-2 3 -4 0
2 3 4 0
-2 -3 4 0
-5 -1 0
-5 -4 0
1 4 5 0
-6 7 -8 0
6 -7 -8 0
-6 -7 8 0
6 7 8 0
-9 8 0
-9 2 0
-8 -2 9 0
-10 -9 0
-10 9 0
-5 10 -11 0
5 -10 -11 0
-5 -10 11 0
5 10 11 0
-14 12 0
-14 -13 0
-12 13 14 0
14 -15 -16 0
-14 15 -16 0
14 15 16 0
-14 -15 16 0
-17 6 0
-17 -6 0
-19 17 0
-19 -18 0
-17 18 19 0
-20 16 0
-20 19 0
-16 -19 20 0
-21 1 0
-21 -20 0
-1 20 21 0
23 22 0
23 7 0
-22 -7 -23 0
-24 -21 0
-24 -23 0
21 23 24 0
-25 19 0
-25 -24 0
-19 24 25 0
-26 -20 0
-26 25 0
20 -25 26 0
-27 -21 0
-27 -1 0
21 1 27 0
-26 27 -28 0
26 -27 -28 0
-26 -27 28 0
26 27 28 0
-11 -28 -29 0
11 28 -29 0
-11 28 29 0
11 -28 29 0
-30 -31 0
30 -31 0
6 -31 -32 0
-6 31 -32 0
6 31 32 0
-6 -31 32 0
33 29 0
33 32 0
-29 -32 -33 0
-34 -16 0
-34 -16 0
16 34 0
33 -34 -35 0
-33 34 -35 0
33 34 35 0
-33 -34 35 0
37 36 0
37 -21 0
-36 21 -37 0
-38 -8 0
-38 37 0
8 -37 38 0
39 35 0
39 -38 0
-35 38 -39 0
24 -3 -41 0
-24 3 -41 0
24 3 41 0
-24 -3 41 0
-42 41 0
-42 -41 0
40 42 -43 0
-40 -42 -43 0
40 -42 43 0
-40 42 43 0
44 18 0
44 17 0
-18 -17 -44 0
44 36 -45 0
-44 -36 -45 0
44 -36 45 0
-44 36 45 0
46 -31 0
46 -45 0
31 45 -46 0
46 -17 -47 0
-46 17 -47 0
46 17 47 0
-46 -17 47 0
-17 8 -48 0
17 -8 -48 0
-17 -8 48 0
17 8 48 0
-2 48 -49 0
2 -48 -49 0
-2 -48 49 0
2 48 49 0
-50 47 0
-50 49 0
-47 -49 50 0
51 -43 0
51 -50 0
43 50 -51 0
-52 -39 0
-52 -51 0
39 51 52 0
-30 -7 -53 0
30 7 -53 0
-30 7 53 0
30 -7 53 0
-54 -1 0
-54 -2 0
1 2 54 0
-55 -8 0
-55 -54 0
8 54 55 0
56 -31 0
56 -41 0
31 41 -56 0
-55 56 -57 0
55 -56 -57 0
-55 -56 57 0
55 56 57 0
-58 -13 0
-58 7 0
13 -7 58 0
-18 -14 -59 0
18 14 -59 0
-18 14 59 0
18 -14 59 0
-59 7 -60 0
59 -7 -60 0
-59 -7 60 0
59 7 60 0
-61 30 0
-61 -7 0
-30 7 61 0
62 -5 0
62 61 0
5 -61 -62 0
-63 -7 0
-63 -3 0
7 3 63 0
63 8 -64 0
-63 -8 -64 0
63 -8 64 0
-63 8 64 0
65 62 0
65 -64 0
-62 64 -65 0
-66 -60 0
-66 65 0
60 -65 66 0
58 66 -67 0
-58 -66 -67 0
58 -66 67 0
-58 66 67 0
57 67 -68 0
-57 -67 -68 0
57 -67 68 0
-57 67 68 0
-53 68 -69 0
53 -68 -69 0
-53 -68 69 0
53 68 69 0
17 63 -70 0
-17 -63 -70 0
17 -63 70 0
-17 63 70 0
71 69 0
71 -70 0
-69 70 -71 0
72 23 0
72 17 0
-23 -17 -72 0
-74 -61 0
-74 73 0
61 -73 74 0
75 -72 0
75 74 0
72 -74 -75 0
76 -46 0
76 -63 0
46 63 -76 0
75 76 -77 0
-75 -76 -77 0
75 -76 77 0
-75 76 77 0
-78 -71 0
-78 -77 0
71 77 78 0
-52 -78 -79 0
52 78 -79 0
-52 78 79 0
52 -78 79 0
77 -73 14 55 -50 33 0
71 25 70 -59 18 0
-5 -75 61 3 -9 0
-3 -8 0
-56 47 -64 4 0
6 -19 0
38 -8 11 -49 -32 58 0
74 -75 -33 -64 0
2 -13 69 -73 37 47 0
18 58 0
-20 44 62 40 61 0
-14 -22 -49 -61 -74 0
-52 2 32 -71 0
68 34 -1 0
-16 67 -40 -43 -53 0
28 -42 79 0
39 57 51 41 0
-48 27 -7 61 0
18 58 10 -37 -64 0
-72 -41 58 14 0
17 -15 -32 19 0
-45 -68 0
21 10 64 0
41 -16 -6 49 0
-28 -36 0
23 -59 -60 -44 0
15 -13 0
27 -71 -55 22 0
20 69 0
-19 65 52 5 38 -78 0
79 58 35 0
58 49 0
54 16 -71 -15 47 -48 0
-40 4 0
-30 39 -20 -44 -14 -26 0
55 57 0
2 45 0
8 -35 -78 0
26 -14 52 -58 -64 0
-7 26 41 0
-3 -52 -32 38 -30 0
9 -16 -4 -44 29 0
-40 -19 65 -61 0
79 0
